NAME : local_6
TYPE : ATSP
DIMENSION : 11
EDGE_WEIGHT_TYPE : EXPLICIT
EDGE_WEIGHT_FORMAT : FULL_MATRIX
EDGE_WEIGHT_SECTION
0 10000000 10000000 863 10000000 809 540 372 10000000 834 10000000 
0 0 652 10000000 10000000 10000000 10000000 10000000 453 281 10000000 
0 652 0 10000000 804 10000000 10000000 10000000 409 853 840 
0 10000000 10000000 0 10000000 161 10000000 563 10000000 812 10000000 
0 10000000 804 10000000 0 10000000 642 10000000 10000000 10000000 225 
0 10000000 10000000 161 10000000 0 10000000 523 10000000 906 10000000 
0 10000000 10000000 10000000 642 10000000 0 858 10000000 10000000 855 
0 10000000 10000000 563 10000000 523 858 0 10000000 787 10000000 
0 453 409 10000000 10000000 10000000 10000000 10000000 0 709 10000000 
0 281 853 812 10000000 906 10000000 787 709 0 10000000 
0 10000000 10000000 10000000 10000000 10000000 10000000 10000000 10000000 10000000 0 
EOF